NAME: instance_2099
TYPE: TSP
DIMENSION: 20
EDGE_WEIGHT_TYPE: EUC_2D
NODE_COORD_SECTION
0 36.53 12.67
1 54.12 40.58
2 66.55 53.45
3 2.30 72.96
4 64.44 12.93
5 67.92 14.47
6 39.17 59.44
7 19.11 76.55
8 70.76 14.21
9 23.71 40.95
10 29.82 11.60
11 82.54 81.98
12 68.44 0.10
13 62.81 90.69
14 80.22 96.55
15 74.52 51.14
16 48.72 28.60
17 2.22 9.31
18 3.07 5.62
19 47.45 12.64
EOF
